(declare-fun Constructed_Argument_t () String)
(declare-fun CreateAsClass () Bool)
(declare-fun ExpandObjSwitcher () Real)
(declare-fun Constructed_Argument_2_t () String)
(declare-fun Constructed_Argument_3_t () String)
(declare-fun Constructed_Argument_4_t () String)
(declare-fun CreateAsClass_2 () Bool)
(declare-fun Constructed_Argument_2_elements__normalized_0_t () String)
(declare-fun Constructed_Argument_2_elements_name_1_t () String)
(declare-fun Constructed_Argument_2_elements_name_1 () Real)
(declare-fun Constructed_Argument_2_elements_path_2_t () String)
(declare-fun Constructed_Argument_2_elements_params_3_t () String)
(declare-fun Constructed_Argument_2_elements_params_3 () String)
(declare-fun Constructed_Argument_2_elements_path_4_t () String)
(declare-fun Constructed_Argument_2_elements_query_5_t () String)
(assert (not (= Constructed_Argument_t "string")))
(assert (not (= Constructed_Argument_t "number")))
(assert (not (= Constructed_Argument_t "boolean")))
(assert (not (= Constructed_Argument_t "object")))
(assert (not (= Constructed_Argument_t "array_number")))
(assert (not (= Constructed_Argument_t "array_string")))
(assert (not (= Constructed_Argument_t "array_bool")))
(assert (not (= Constructed_Argument_t "null")))
(assert CreateAsClass)
(assert (= ExpandObjSwitcher 0.0))
(assert (= Constructed_Argument_2_t "object"))
(assert (not (= Constructed_Argument_3_t "string")))
(assert (not (= Constructed_Argument_3_t "number")))
(assert (not (= Constructed_Argument_3_t "boolean")))
(assert (not (= Constructed_Argument_3_t "object")))
(assert (not (= Constructed_Argument_3_t "array_number")))
(assert (not (= Constructed_Argument_3_t "array_string")))
(assert (not (= Constructed_Argument_3_t "array_bool")))
(assert (not (= Constructed_Argument_3_t "null")))
(assert (not (= Constructed_Argument_4_t "string")))
(assert (not (= Constructed_Argument_4_t "number")))
(assert (not (= Constructed_Argument_4_t "boolean")))
(assert (not (= Constructed_Argument_4_t "object")))
(assert (not (= Constructed_Argument_4_t "array_number")))
(assert (not (= Constructed_Argument_4_t "array_string")))
(assert (not (= Constructed_Argument_4_t "array_bool")))
(assert (not (= Constructed_Argument_4_t "null")))
(assert (not CreateAsClass_2))
(assert (not (= Constructed_Argument_2_elements__normalized_0_t "string")))
(assert (not (= Constructed_Argument_2_elements__normalized_0_t "number")))
(assert (not (= Constructed_Argument_2_elements__normalized_0_t "boolean")))
(assert (not (= Constructed_Argument_2_elements__normalized_0_t "object")))
(assert (not (= Constructed_Argument_2_elements__normalized_0_t "array_number")))
(assert (not (= Constructed_Argument_2_elements__normalized_0_t "array_string")))
(assert (not (= Constructed_Argument_2_elements__normalized_0_t "array_bool")))
(assert (not (= Constructed_Argument_2_elements__normalized_0_t "null")))
(assert (= Constructed_Argument_2_elements_name_1_t "number"))
(assert (= Constructed_Argument_2_elements_name_1 0.0))
(assert (not (= Constructed_Argument_2_elements_path_2_t "string")))
(assert (not (= Constructed_Argument_2_elements_path_2_t "number")))
(assert (not (= Constructed_Argument_2_elements_path_2_t "boolean")))
(assert (not (= Constructed_Argument_2_elements_path_2_t "object")))
(assert (not (= Constructed_Argument_2_elements_path_2_t "array_number")))
(assert (not (= Constructed_Argument_2_elements_path_2_t "array_string")))
(assert (not (= Constructed_Argument_2_elements_path_2_t "array_bool")))
(assert (not (= Constructed_Argument_2_elements_path_2_t "null")))
(assert (= Constructed_Argument_2_elements_params_3_t "string"))
(assert (not (= Constructed_Argument_2_elements_params_3 "")))
(assert (not (= Constructed_Argument_2_elements_path_4_t "string")))
(assert (not (= Constructed_Argument_2_elements_path_4_t "number")))
(assert (not (= Constructed_Argument_2_elements_path_4_t "boolean")))
(assert (not (= Constructed_Argument_2_elements_path_4_t "object")))
(assert (not (= Constructed_Argument_2_elements_path_4_t "array_number")))
(assert (not (= Constructed_Argument_2_elements_path_4_t "array_string")))
(assert (not (= Constructed_Argument_2_elements_path_4_t "array_bool")))
(assert (not (= Constructed_Argument_2_elements_path_4_t "null")))
(assert (not (= Constructed_Argument_2_elements_query_5_t "string")))
(assert (not (= Constructed_Argument_2_elements_query_5_t "number")))
(assert (not (= Constructed_Argument_2_elements_query_5_t "boolean")))
(assert (not (= Constructed_Argument_2_elements_query_5_t "object")))
(assert (not (= Constructed_Argument_2_elements_query_5_t "array_number")))
(assert (not (= Constructed_Argument_2_elements_query_5_t "array_string")))
(assert (not (= Constructed_Argument_2_elements_query_5_t "array_bool")))
(assert (= Constructed_Argument_2_elements_query_5_t "null"))
(check-sat)
